c IN1002 Introduction to Algorithms!
c top secret ID string d1d03a63c32
c 12 variables and 50 clauses
p cnf 12 50
c each line is a clause, 0 marks the end
11 -9 9 0
-5 -5 2 0
8 -11 -12 0
7 -2 5 0
-7 1 9 0
-11 8 -4 0
-10 -5 -4 0
12 1 -4 0
-11 11 -4 0
2 -5 8 0
-5 -7 12 0
-7 2 -6 0
9 -2 -3 0
9 -6 9 0
3 -1 -1 0
2 1 -3 0
10 5 4 0
-5 7 -6 0
5 8 -8 0
-10 -3 -1 0
11 6 7 0
10 -12 -4 0
-7 9 8 0
3 8 -9 0
1 -2 5 0
-12 -11 -5 0
-3 12 -11 0
-10 -6 8 0
-3 12 5 0
3 -9 -10 0
-10 -11 10 0
11 11 -12 0
-6 -8 9 0
-8 9 4 0
-3 -3 -8 0
-11 -1 -7 0
-4 10 -6 0
-10 3 -5 0
-1 4 -10 0
-11 7 -8 0
-7 9 -9 0
-9 7 -9 0
11 -10 6 0
9 6 -10 0
-4 12 -8 0
7 -7 2 0
7 -1 -11 0
9 -11 -1 0
-3 5 1 0
7 8 -4 0
c Good luck!
